p cnf 42 42
x T 16 1 6 11 0
x T 17 2 7 12 0
x T 18 3 8 13 0
x T 19 4 9 14 0
x T 20 5 10 15 0
x T 21 .2 1 6 .2 1 11 .2 6 11 0
x T 22 .2 1 7 .2 2 6 .2 1 12 .2 2 11 .2 6 12 .2 7 11 0
x T 23 .2 1 8 .2 2 7 .2 3 6 .2 1 13 .2 2 12 .2 3 11 .2 6 13 .2 7 12 .2 8 11 0
x T 24 .2 1 9 .2 2 8 .2 3 7 .2 4 6 .2 1 14 .2 2 13 .2 3 12 .2 4 11 .2 6 14 .2 7 13 .2 8 12 .2 9 11 0
x T 25 .2 1 10 .2 2 9 .2 3 8 .2 4 7 .2 5 6 .2 1 15 .2 2 14 .2 3 13 .2 4 12 .2 5 11 .2 6 15 .2 7 14 .2 8 13 .2 9 12 .2 10 11 0
x T 26 .2 2 10 .2 3 9 .2 4 8 .2 5 7 .2 2 15 .2 3 14 .2 4 13 .2 5 12 .2 7 15 .2 8 14 .2 9 13 .2 10 12 0
x T 27 .2 3 10 .2 4 9 .2 5 8 .2 3 15 .2 4 14 .2 5 13 .2 8 15 .2 9 14 .2 10 13 0
x T 28 .2 4 10 .2 5 9 .2 4 15 .2 5 14 .2 9 15 .2 10 14 0
x T 29 .2 5 10 .2 5 15 .2 10 15 0
x T 30 .3 1 6 11 0
x T 31 .3 1 6 12 .3 1 7 11 .3 2 6 11 0
x T 32 .3 1 6 13 .3 1 7 12 .3 1 8 11 .3 2 6 12 .3 2 7 11 .3 3 6 11 0
x T 33 .3 1 6 14 .3 1 7 13 .3 1 8 12 .3 1 9 11 .3 2 6 13 .3 2 7 12 .3 2 8 11 .3 3 6 12 .3 3 7 11 .3 4 6 11 0
x T 34 .3 1 6 15 .3 1 7 14 .3 1 8 13 .3 1 9 12 .3 1 10 11 .3 2 6 14 .3 2 7 13 .3 2 8 12 .3 2 9 11 .3 3 6 13 .3 3 7 12 .3 3 8 11 .3 4 6 12 .3 4 7 11 .3 5 6 11 0
x T 35 .3 1 7 15 .3 1 8 14 .3 1 9 13 .3 1 10 12 .3 2 6 15 .3 2 7 14 .3 2 8 13 .3 2 9 12 .3 2 10 11 .3 3 6 14 .3 3 7 13 .3 3 8 12 .3 3 9 11 .3 4 6 13 .3 4 7 12 .3 4 8 11 .3 5 6 12 .3 5 7 11 0
x T 36 .3 1 8 15 .3 1 9 14 .3 1 10 13 .3 2 7 15 .3 2 8 14 .3 2 9 13 .3 2 10 12 .3 3 6 15 .3 3 7 14 .3 3 8 13 .3 3 9 12 .3 3 10 11 .3 4 6 14 .3 4 7 13 .3 4 8 12 .3 4 9 11 .3 5 6 13 .3 5 7 12 .3 5 8 11 0
x T 37 .3 1 9 15 .3 1 10 14 .3 2 8 15 .3 2 9 14 .3 2 10 13 .3 3 7 15 .3 3 8 14 .3 3 9 13 .3 3 10 12 .3 4 6 15 .3 4 7 14 .3 4 8 13 .3 4 9 12 .3 4 10 11 .3 5 6 14 .3 5 7 13 .3 5 8 12 .3 5 9 11 0
x T 38 .3 1 10 15 .3 2 9 15 .3 2 10 14 .3 3 8 15 .3 3 9 14 .3 3 10 13 .3 4 7 15 .3 4 8 14 .3 4 9 13 .3 4 10 12 .3 5 6 15 .3 5 7 14 .3 5 8 13 .3 5 9 12 .3 5 10 11 0
x T 39 .3 2 10 15 .3 3 9 15 .3 3 10 14 .3 4 8 15 .3 4 9 14 .3 4 10 13 .3 5 7 15 .3 5 8 14 .3 5 9 13 .3 5 10 12 0
x T 40 .3 3 10 15 .3 4 9 15 .3 4 10 14 .3 5 8 15 .3 5 9 14 .3 5 10 13 0
x T 41 .3 4 10 15 .3 5 9 15 .3 5 10 14 0
x T 42 .3 5 10 15 0
x 16 24 25 27 29 30 31 33 34 35 36 38 39 40 .2 16 30 .2 16 31 .2 16 35 .2 16 36 .2 16 38 .2 16 39 .2 16 42 .2 17 31 .2 17 34 .2 17 36 .2 17 37 .2 17 39 .2 17 41 .2 17 42 .2 18 30 .2 18 34 .2 18 35 .2 18 37 .2 18 38 .2 18 41 .2 19 31 .2 19 32 .2 19 33 .2 19 35 .2 19 36 .2 19 37 .2 19 38 .2 19 40 .2 19 42 .2 20 31 .2 20 33 .2 20 34 .2 20 35 .2 20 37 .2 20 39 .2 20 40 .2 20 42 .2 21 32 .2 21 33 .2 21 35 .2 21 39 .2 21 40 .2 22 30 .2 22 31 .2 22 33 .2 22 37 .2 22 38 .2 22 41 .2 22 42 .2 23 31 .2 23 35 .2 23 36 .2 23 39 .2 23 40 .2 24 33 .2 24 34 .2 24 37 .2 24 38 .2 24 41 .2 25 31 .2 25 32 .2 25 35 .2 25 36 .2 25 39 .2 25 41 .2 25 42 .2 26 30 .2 26 33 .2 26 34 .2 26 37 .2 26 39 .2 26 40 .2 26 41 .2 26 42 .2 27 31 .2 27 32 .2 27 35 .2 27 37 .2 27 38 .2 27 39 .2 27 40 .2 27 42 .2 28 30 .2 28 33 .2 28 35 .2 28 36 .2 28 37 .2 28 38 .2 28 40 .2 28 42 .2 29 31 .2 29 33 .2 29 34 .2 29 35 .2 29 36 .2 29 38 .2 29 40 .2 30 31 .2 30 32 .2 30 35 .2 30 38 .2 31 33 .2 31 35 .2 31 37 .2 31 39 .2 31 42 .2 32 33 .2 32 34 .2 32 37 .2 32 39 .2 32 40 .2 32 41 .2 33 34 .2 33 36 .2 33 37 .2 33 39 .2 33 40 .2 33 41 .2 34 35 .2 34 37 .2 34 39 .2 35 39 .2 35 40 .2 36 38 .2 36 40 .2 36 41 .2 36 42 .2 38 39 .2 38 41 .2 39 40 .2 39 41 .2 39 42 .2 40 42 0
x T 20 22 23 24 27 28 30 31 33 36 37 39 40 42 .2 16 30 .2 16 32 .2 16 33 .2 16 34 .2 16 36 .2 16 42 .2 17 30 .2 17 33 .2 17 35 .2 17 36 .2 17 37 .2 17 39 .2 17 40 .2 17 41 .2 17 42 .2 18 30 .2 18 32 .2 18 36 .2 18 37 .2 18 39 .2 18 40 .2 18 42 .2 19 31 .2 19 32 .2 19 33 .2 19 38 .2 19 41 .2 19 42 .2 20 32 .2 20 33 .2 20 34 .2 20 40 .2 21 33 .2 21 34 .2 21 36 .2 21 40 .2 21 41 .2 22 31 .2 22 32 .2 22 34 .2 22 38 .2 22 39 .2 22 42 .2 23 30 .2 23 32 .2 23 36 .2 23 37 .2 23 40 .2 23 41 .2 24 30 .2 24 34 .2 24 35 .2 24 38 .2 24 39 .2 24 42 .2 25 32 .2 25 33 .2 25 36 .2 25 37 .2 25 40 .2 25 42 .2 26 30 .2 26 31 .2 26 34 .2 26 35 .2 26 38 .2 26 40 .2 26 41 .2 26 42 .2 27 32 .2 27 33 .2 27 36 .2 27 38 .2 27 39 .2 27 40 .2 27 41 .2 28 30 .2 28 31 .2 28 34 .2 28 36 .2 28 37 .2 28 38 .2 28 39 .2 28 41 .2 29 32 .2 29 34 .2 29 35 .2 29 36 .2 29 37 .2 29 39 .2 29 41 .2 30 31 .2 30 33 .2 30 34 .2 30 39 .2 30 40 .2 30 41 .2 31 35 .2 31 36 .2 31 37 .2 31 38 .2 31 39 .2 31 40 .2 32 33 .2 32 34 .2 32 38 .2 32 39 .2 32 41 .2 32 42 .2 33 34 .2 33 35 .2 33 36 .2 33 37 .2 33 40 .2 33 41 .2 34 36 .2 34 39 .2 34 40 .2 34 42 .2 35 37 .2 35 40 .2 35 42 .2 36 37 .2 36 38 .2 36 39 .2 37 40 .2 37 41 .2 37 42 .2 38 41 .2 38 42 .2 39 40 .2 39 42 .2 40 42 0
x T 21 22 23 24 28 30 32 33 34 35 36 38 41 .2 16 30 .2 16 31 .2 16 33 .2 16 34 .2 16 35 .2 16 37 .2 16 39 .2 16 40 .2 16 41 .2 17 30 .2 17 34 .2 17 35 .2 17 37 .2 17 38 .2 17 41 .2 18 30 .2 18 31 .2 18 35 .2 18 36 .2 18 38 .2 18 39 .2 18 42 .2 19 30 .2 19 31 .2 19 32 .2 19 33 .2 19 34 .2 19 36 .2 19 40 .2 19 41 .2 19 42 .2 20 32 .2 20 34 .2 20 36 .2 20 38 .2 20 39 .2 21 30 .2 21 32 .2 21 33 .2 21 34 .2 21 37 .2 21 39 .2 21 40 .2 21 41 .2 21 42 .2 22 30 .2 22 31 .2 22 32 .2 22 35 .2 22 37 .2 22 38 .2 22 39 .2 22 40 .2 22 41 .2 22 42 .2 23 30 .2 23 33 .2 23 35 .2 23 36 .2 23 37 .2 23 38 .2 23 39 .2 23 40 .2 23 41 .2 23 42 .2 24 31 .2 24 33 .2 24 34 .2 24 35 .2 24 36 .2 24 37 .2 24 38 .2 24 39 .2 24 40 .2 24 41 .2 25 31 .2 25 32 .2 25 33 .2 25 34 .2 25 35 .2 25 36 .2 25 37 .2 25 38 .2 25 39 .2 25 42 .2 26 30 .2 26 31 .2 26 32 .2 26 33 .2 26 34 .2 26 35 .2 26 36 .2 26 37 .2 26 40 .2 27 30 .2 27 31 .2 27 32 .2 27 33 .2 27 34 .2 27 35 .2 27 38 .2 27 41 .2 28 30 .2 28 31 .2 28 32 .2 28 33 .2 28 36 .2 28 39 .2 29 30 .2 29 31 .2 29 34 .2 29 37 .2 29 42 .2 30 32 .2 30 34 .2 30 35 .2 30 36 .2 30 41 .2 30 42 .2 31 32 .2 31 33 .2 31 34 .2 31 35 .2 31 38 .2 31 42 .2 32 33 .2 32 34 .2 32 39 .2 32 41 .2 32 42 .2 33 34 .2 33 38 .2 33 42 .2 34 35 .2 34 36 .2 34 38 .2 34 39 .2 34 40 .2 34 41 .2 34 42 .2 35 40 .2 35 41 .2 35 42 .2 36 37 .2 36 39 .2 37 38 .2 38 39 .2 38 40 .2 39 41 .2 39 42 .2 40 41 .2 40 42 .2 41 42 0
x 20 21 24 27 28 29 33 35 37 38 39 40 .2 16 33 .2 16 34 .2 16 36 .2 16 37 .2 16 39 .2 16 40 .2 17 32 .2 17 34 .2 17 35 .2 17 37 .2 17 39 .2 17 40 .2 17 41 .2 18 32 .2 18 33 .2 18 35 .2 18 41 .2 19 30 .2 19 31 .2 19 33 .2 19 36 .2 19 37 .2 19 38 .2 19 39 .2 19 40 .2 19 41 .2 20 31 .2 20 34 .2 20 38 .2 20 40 .2 20 41 .2 20 42 .2 21 30 .2 21 31 .2 21 33 .2 21 34 .2 21 35 .2 21 38 .2 21 40 .2 21 41 .2 21 42 .2 22 31 .2 22 32 .2 22 33 .2 22 36 .2 22 38 .2 22 39 .2 22 40 .2 22 41 .2 22 42 .2 23 30 .2 23 31 .2 23 34 .2 23 36 .2 23 37 .2 23 38 .2 23 39 .2 23 40 .2 23 41 .2 23 42 .2 24 32 .2 24 34 .2 24 35 .2 24 36 .2 24 37 .2 24 38 .2 24 39 .2 24 40 .2 24 41 .2 24 42 .2 25 30 .2 25 32 .2 25 33 .2 25 34 .2 25 35 .2 25 36 .2 25 37 .2 25 38 .2 25 39 .2 25 40 .2 26 30 .2 26 31 .2 26 32 .2 26 33 .2 26 34 .2 26 35 .2 26 36 .2 26 37 .2 26 38 .2 26 41 .2 27 30 .2 27 31 .2 27 32 .2 27 33 .2 27 34 .2 27 35 .2 27 36 .2 27 39 .2 27 42 .2 28 30 .2 28 31 .2 28 32 .2 28 33 .2 28 34 .2 28 37 .2 28 40 .2 29 30 .2 29 31 .2 29 32 .2 29 35 .2 29 38 .2 30 34 .2 30 40 .2 31 32 .2 31 33 .2 31 35 .2 31 37 .2 31 38 .2 31 40 .2 32 33 .2 32 36 .2 32 39 .2 32 40 .2 32 41 .2 32 42 .2 33 36 .2 33 37 .2 33 38 .2 33 42 .2 34 35 .2 34 36 .2 34 37 .2 34 38 .2 34 39 .2 34 41 .2 35 36 .2 35 37 .2 35 38 .2 35 42 .2 36 37 .2 36 38 .2 36 39 .2 36 40 .2 36 41 .2 37 39 .2 37 40 .2 38 41 .2 38 42 .2 40 41 0
x 17 21 24 26 27 30 31 35 37 41 .2 16 32 .2 16 34 .2 16 35 .2 16 36 .2 16 38 .2 16 41 .2 16 42 .2 17 30 .2 17 33 .2 17 35 .2 17 36 .2 17 40 .2 17 42 .2 19 30 .2 19 32 .2 19 33 .2 19 37 .2 19 39 .2 19 40 .2 20 30 .2 20 32 .2 20 35 .2 20 36 .2 20 37 .2 20 39 .2 20 41 .2 21 31 .2 21 33 .2 21 34 .2 21 36 .2 21 40 .2 21 41 .2 21 42 .2 22 31 .2 22 32 .2 22 34 .2 22 38 .2 22 39 .2 22 40 .2 23 30 .2 23 32 .2 23 36 .2 23 37 .2 23 38 .2 23 41 .2 23 42 .2 24 30 .2 24 34 .2 24 35 .2 24 36 .2 24 39 .2 24 40 .2 24 42 .2 25 32 .2 25 33 .2 25 34 .2 25 37 .2 25 38 .2 25 40 .2 25 42 .2 26 30 .2 26 31 .2 26 32 .2 26 35 .2 26 36 .2 26 38 .2 26 40 .2 26 41 .2 27 30 .2 27 33 .2 27 34 .2 27 36 .2 27 38 .2 27 39 .2 27 42 .2 28 31 .2 28 32 .2 28 34 .2 28 36 .2 28 37 .2 28 40 .2 28 41 .2 28 42 .2 29 30 .2 29 32 .2 29 34 .2 29 35 .2 29 38 .2 29 39 .2 29 40 .2 30 31 .2 30 32 .2 30 33 .2 30 35 .2 30 37 .2 30 39 .2 30 40 .2 31 33 .2 31 38 .2 31 40 .2 31 41 .2 32 33 .2 32 34 .2 32 36 .2 32 37 .2 32 38 .2 32 40 .2 32 42 .2 33 35 .2 33 38 .2 33 39 .2 33 40 .2 34 37 .2 34 39 .2 34 40 .2 35 37 .2 35 42 .2 36 37 .2 36 38 .2 36 39 .2 36 41 .2 37 39 .2 37 40 .2 38 39 .2 38 40 .2 38 41 .2 38 42 .2 39 41 .2 40 42 .2 41 42 0
x T 20 23 24 25 26 27 28 30 31 33 36 38 42 .2 16 31 .2 16 32 .2 16 33 .2 16 36 .2 17 30 .2 17 31 .2 17 35 .2 17 36 .2 17 37 .2 17 39 .2 18 36 .2 18 37 .2 18 38 .2 18 42 .2 19 32 .2 19 33 .2 19 36 .2 19 37 .2 19 40 .2 20 30 .2 20 32 .2 20 33 .2 20 35 .2 20 36 .2 20 38 .2 20 40 .2 20 41 .2 20 42 .2 21 30 .2 21 33 .2 21 34 .2 21 37 .2 21 39 .2 21 40 .2 21 41 .2 21 42 .2 22 31 .2 22 32 .2 22 35 .2 22 37 .2 22 38 .2 22 39 .2 22 40 .2 22 42 .2 23 30 .2 23 33 .2 23 35 .2 23 36 .2 23 37 .2 23 38 .2 23 40 .2 23 42 .2 24 31 .2 24 33 .2 24 34 .2 24 35 .2 24 36 .2 24 38 .2 24 40 .2 25 31 .2 25 32 .2 25 33 .2 25 34 .2 25 36 .2 25 38 .2 25 42 .2 26 30 .2 26 31 .2 26 32 .2 26 34 .2 26 36 .2 26 40 .2 27 30 .2 27 32 .2 27 34 .2 27 38 .2 27 42 .2 28 30 .2 28 32 .2 28 36 .2 28 40 .2 28 41 .2 29 30 .2 29 34 .2 29 38 .2 29 39 .2 29 41 .2 30 32 .2 30 33 .2 30 34 .2 30 36 .2 30 37 .2 30 38 .2 30 41 .2 31 35 .2 31 37 .2 31 38 .2 31 40 .2 32 33 .2 32 34 .2 32 35 .2 32 36 .2 32 37 .2 32 38 .2 32 39 .2 32 40 .2 32 42 .2 33 34 .2 33 39 .2 33 40 .2 33 42 .2 34 36 .2 34 37 .2 34 39 .2 34 40 .2 34 42 .2 35 36 .2 35 40 .2 35 41 .2 36 37 .2 36 39 .2 36 40 .2 37 38 .2 37 41 .2 37 42 .2 38 42 .2 39 40 .2 40 42 .2 41 42 0
x T 20 21 22 23 24 25 26 27 28 32 34 35 39 40 41 .2 16 33 .2 16 35 .2 16 40 .2 17 30 .2 17 32 .2 17 33 .2 17 34 .2 17 37 .2 17 38 .2 17 39 .2 17 40 .2 18 32 .2 18 33 .2 18 35 .2 18 37 .2 18 39 .2 19 31 .2 19 32 .2 19 33 .2 19 38 .2 19 41 .2 19 42 .2 20 30 .2 20 34 .2 20 37 .2 20 39 .2 21 30 .2 21 31 .2 21 34 .2 21 35 .2 21 38 .2 21 40 .2 21 41 .2 21 42 .2 22 32 .2 22 33 .2 22 36 .2 22 38 .2 22 39 .2 22 40 .2 22 41 .2 23 30 .2 23 31 .2 23 34 .2 23 36 .2 23 37 .2 23 38 .2 23 39 .2 23 41 .2 24 32 .2 24 34 .2 24 35 .2 24 36 .2 24 37 .2 24 39 .2 24 41 .2 25 30 .2 25 32 .2 25 33 .2 25 34 .2 25 35 .2 25 37 .2 25 39 .2 26 30 .2 26 31 .2 26 32 .2 26 33 .2 26 35 .2 26 37 .2 26 41 .2 27 30 .2 27 31 .2 27 33 .2 27 35 .2 27 39 .2 28 31 .2 28 33 .2 28 37 .2 28 41 .2 28 42 .2 29 31 .2 29 35 .2 29 39 .2 29 40 .2 29 42 .2 30 31 .2 30 33 .2 30 34 .2 30 36 .2 30 37 .2 30 38 .2 30 40 .2 31 32 .2 31 34 .2 31 36 .2 31 40 .2 31 41 .2 32 36 .2 32 37 .2 32 40 .2 33 35 .2 33 37 .2 33 38 .2 33 39 .2 33 40 .2 33 41 .2 34 41 .2 35 36 .2 35 38 .2 35 41 .2 35 42 .2 36 37 .2 36 38 .2 36 39 .2 36 40 .2 36 41 .2 36 42 .2 37 39 .2 38 41 .2 38 42 .2 40 41 .2 40 42 0
x T 21 25 27 29 30 32 36 38 41 42 .2 16 31 .2 16 33 .2 16 34 .2 16 35 .2 16 37 .2 16 39 .2 16 40 .2 16 42 .2 17 31 .2 17 32 .2 17 33 .2 17 36 .2 18 30 .2 18 31 .2 18 35 .2 18 36 .2 18 37 .2 18 39 .2 19 36 .2 19 37 .2 19 38 .2 19 42 .2 20 32 .2 20 33 .2 20 36 .2 20 37 .2 20 40 .2 21 31 .2 21 32 .2 21 35 .2 21 36 .2 21 39 .2 21 41 .2 21 42 .2 22 30 .2 22 33 .2 22 34 .2 22 37 .2 22 39 .2 22 40 .2 22 41 .2 22 42 .2 23 31 .2 23 32 .2 23 35 .2 23 37 .2 23 38 .2 23 39 .2 23 40 .2 23 42 .2 24 30 .2 24 33 .2 24 35 .2 24 36 .2 24 37 .2 24 38 .2 24 40 .2 24 42 .2 25 31 .2 25 33 .2 25 34 .2 25 35 .2 25 36 .2 25 38 .2 25 40 .2 26 31 .2 26 32 .2 26 33 .2 26 34 .2 26 36 .2 26 38 .2 26 42 .2 27 30 .2 27 31 .2 27 32 .2 27 34 .2 27 36 .2 27 40 .2 28 30 .2 28 32 .2 28 34 .2 28 38 .2 28 42 .2 29 30 .2 29 32 .2 29 36 .2 29 40 .2 29 41 .2 30 31 .2 30 32 .2 30 33 .2 30 34 .2 30 37 .2 30 38 .2 30 40 .2 31 33 .2 31 36 .2 31 37 .2 31 39 .2 31 40 .2 31 41 .2 32 34 .2 32 37 .2 32 39 .2 32 40 .2 32 41 .2 33 34 .2 33 35 .2 33 36 .2 33 40 .2 33 42 .2 34 37 .2 34 38 .2 34 39 .2 34 42 .2 35 38 .2 35 39 .2 35 40 .2 35 42 .2 36 37 .2 36 39 .2 36 40 .2 36 41 .2 36 42 .2 37 39 .2 37 40 .2 37 42 .2 39 41 .2 39 42 .2 40 41 .2 40 42 .2 41 42 0
x 18 21 22 25 26 27 30 32 34 35 36 37 38 40 .2 16 32 .2 16 33 .2 16 34 .2 16 40 .2 17 33 .2 17 35 .2 17 40 .2 18 30 .2 18 32 .2 18 33 .2 18 34 .2 18 37 .2 18 38 .2 18 39 .2 18 40 .2 19 32 .2 19 33 .2 19 35 .2 19 37 .2 19 39 .2 20 31 .2 20 32 .2 20 33 .2 20 38 .2 20 41 .2 20 42 .2 21 32 .2 21 33 .2 21 36 .2 21 37 .2 21 40 .2 21 42 .2 22 30 .2 22 31 .2 22 34 .2 22 35 .2 22 38 .2 22 40 .2 22 41 .2 22 42 .2 23 32 .2 23 33 .2 23 36 .2 23 38 .2 23 39 .2 23 40 .2 23 41 .2 24 30 .2 24 31 .2 24 34 .2 24 36 .2 24 37 .2 24 38 .2 24 39 .2 24 41 .2 25 32 .2 25 34 .2 25 35 .2 25 36 .2 25 37 .2 25 39 .2 25 41 .2 26 30 .2 26 32 .2 26 33 .2 26 34 .2 26 35 .2 26 37 .2 26 39 .2 27 30 .2 27 31 .2 27 32 .2 27 33 .2 27 35 .2 27 37 .2 27 41 .2 28 30 .2 28 31 .2 28 33 .2 28 35 .2 28 39 .2 29 31 .2 29 33 .2 29 37 .2 29 41 .2 29 42 .2 30 33 .2 30 34 .2 30 35 .2 30 36 .2 30 37 .2 30 38 .2 30 39 .2 30 40 .2 31 33 .2 31 34 .2 31 35 .2 31 37 .2 31 38 .2 31 39 .2 31 42 .2 32 36 .2 32 38 .2 32 39 .2 32 41 .2 33 34 .2 33 35 .2 33 36 .2 33 37 .2 33 38 .2 33 39 .2 33 40 .2 33 41 .2 34 35 .2 34 40 .2 34 41 .2 35 37 .2 35 38 .2 35 40 .2 35 41 .2 36 37 .2 36 41 .2 36 42 .2 37 38 .2 37 40 .2 37 41 .2 38 39 .2 38 42 .2 40 41 0
x 22 24 25 26 27 31 32 33 36 42 .2 16 31 .2 16 32 .2 16 33 .2 16 35 .2 16 36 .2 16 37 .2 16 38 .2 16 40 .2 16 42 .2 17 31 .2 17 33 .2 17 34 .2 17 35 .2 17 37 .2 17 39 .2 17 40 .2 17 42 .2 18 31 .2 18 32 .2 18 33 .2 18 36 .2 19 30 .2 19 31 .2 19 35 .2 19 36 .2 19 37 .2 19 39 .2 20 36 .2 20 37 .2 20 38 .2 20 42 .2 21 33 .2 21 34 .2 21 37 .2 21 38 .2 21 41 .2 22 31 .2 22 32 .2 22 35 .2 22 36 .2 22 39 .2 22 41 .2 22 42 .2 23 30 .2 23 33 .2 23 34 .2 23 37 .2 23 39 .2 23 40 .2 23 41 .2 23 42 .2 24 31 .2 24 32 .2 24 35 .2 24 37 .2 24 38 .2 24 39 .2 24 40 .2 24 42 .2 25 30 .2 25 33 .2 25 35 .2 25 36 .2 25 37 .2 25 38 .2 25 40 .2 25 42 .2 26 31 .2 26 33 .2 26 34 .2 26 35 .2 26 36 .2 26 38 .2 26 40 .2 27 31 .2 27 32 .2 27 33 .2 27 34 .2 27 36 .2 27 38 .2 27 42 .2 28 30 .2 28 31 .2 28 32 .2 28 34 .2 28 36 .2 28 40 .2 29 30 .2 29 32 .2 29 34 .2 29 38 .2 29 42 .2 30 31 .2 30 32 .2 30 35 .2 30 37 .2 30 38 .2 30 39 .2 30 42 .2 31 32 .2 31 34 .2 31 35 .2 31 37 .2 31 38 .2 31 39 .2 31 41 .2 32 33 .2 32 35 .2 32 37 .2 32 41 .2 32 42 .2 33 37 .2 33 38 .2 33 41 .2 34 36 .2 34 38 .2 34 39 .2 34 40 .2 34 41 .2 34 42 .2 35 42 .2 36 37 .2 36 39 .2 36 42 .2 37 38 .2 37 39 .2 37 40 .2 37 41 .2 37 42 .2 38 40 .2 39 42 .2 41 42 0
x 27 29 30 32 35 36 37 39 41 42 .2 16 31 .2 16 32 .2 16 33 .2 16 38 .2 16 41 .2 16 42 .2 17 32 .2 17 33 .2 17 34 .2 17 40 .2 18 33 .2 18 35 .2 18 40 .2 19 30 .2 19 32 .2 19 33 .2 19 34 .2 19 37 .2 19 38 .2 19 39 .2 19 40 .2 20 32 .2 20 33 .2 20 35 .2 20 37 .2 20 39 .2 21 30 .2 21 34 .2 21 35 .2 21 38 .2 21 39 .2 21 42 .2 22 32 .2 22 33 .2 22 36 .2 22 37 .2 22 40 .2 22 42 .2 23 30 .2 23 31 .2 23 34 .2 23 35 .2 23 38 .2 23 40 .2 23 41 .2 23 42 .2 24 32 .2 24 33 .2 24 36 .2 24 38 .2 24 39 .2 24 40 .2 24 41 .2 25 30 .2 25 31 .2 25 34 .2 25 36 .2 25 37 .2 25 38 .2 25 39 .2 25 41 .2 26 32 .2 26 34 .2 26 35 .2 26 36 .2 26 37 .2 26 39 .2 26 41 .2 27 30 .2 27 32 .2 27 33 .2 27 34 .2 27 35 .2 27 37 .2 27 39 .2 28 30 .2 28 31 .2 28 32 .2 28 33 .2 28 35 .2 28 37 .2 28 41 .2 29 30 .2 29 31 .2 29 33 .2 29 35 .2 29 39 .2 30 31 .2 30 32 .2 30 36 .2 30 37 .2 30 39 .2 30 40 .2 30 41 .2 30 42 .2 31 32 .2 31 33 .2 31 34 .2 31 35 .2 31 38 .2 31 39 .2 31 41 .2 32 34 .2 32 37 .2 32 38 .2 32 40 .2 32 41 .2 32 42 .2 33 35 .2 33 38 .2 33 40 .2 33 41 .2 33 42 .2 34 35 .2 34 36 .2 34 37 .2 34 41 .2 35 38 .2 35 39 .2 35 40 .2 36 39 .2 36 40 .2 36 41 .2 37 38 .2 37 40 .2 37 41 .2 37 42 .2 38 40 .2 38 41 .2 40 42 .2 41 42 0
x T 22 23 26 28 29 30 33 35 36 40 41 .2 16 30 .2 16 34 .2 16 35 .2 16 37 .2 16 38 .2 16 41 .2 17 31 .2 17 32 .2 17 33 .2 17 35 .2 17 36 .2 17 37 .2 17 38 .2 17 40 .2 17 42 .2 18 31 .2 18 33 .2 18 34 .2 18 35 .2 18 37 .2 18 39 .2 18 40 .2 18 42 .2 19 31 .2 19 32 .2 19 33 .2 19 36 .2 20 30 .2 20 31 .2 20 35 .2 20 36 .2 20 37 .2 20 39 .2 21 31 .2 21 35 .2 21 36 .2 21 39 .2 21 40 .2 22 33 .2 22 34 .2 22 37 .2 22 38 .2 22 41 .2 23 31 .2 23 32 .2 23 35 .2 23 36 .2 23 39 .2 23 41 .2 23 42 .2 24 30 .2 24 33 .2 24 34 .2 24 37 .2 24 39 .2 24 40 .2 24 41 .2 24 42 .2 25 31 .2 25 32 .2 25 35 .2 25 37 .2 25 38 .2 25 39 .2 25 40 .2 25 42 .2 26 30 .2 26 33 .2 26 35 .2 26 36 .2 26 37 .2 26 38 .2 26 40 .2 26 42 .2 27 31 .2 27 33 .2 27 34 .2 27 35 .2 27 36 .2 27 38 .2 27 40 .2 28 31 .2 28 32 .2 28 33 .2 28 34 .2 28 36 .2 28 38 .2 28 42 .2 29 30 .2 29 31 .2 29 32 .2 29 34 .2 29 36 .2 29 40 .2 30 35 .2 30 38 .2 30 40 .2 31 34 .2 31 35 .2 31 36 .2 31 37 .2 31 38 .2 31 39 .2 31 40 .2 31 41 .2 32 34 .2 32 35 .2 32 36 .2 32 38 .2 32 39 .2 32 40 .2 33 37 .2 33 39 .2 33 40 .2 33 42 .2 34 35 .2 34 36 .2 34 37 .2 34 38 .2 34 39 .2 34 40 .2 34 41 .2 34 42 .2 35 36 .2 35 41 .2 35 42 .2 36 38 .2 36 39 .2 36 41 .2 36 42 .2 37 38 .2 37 42 .2 38 39 .2 38 41 .2 38 42 .2 39 40 .2 41 42 0
x 19 21 24 25 28 29 30 32 36 38 39 40 42 .2 16 30 .2 16 32 .2 16 36 .2 16 37 .2 16 39 .2 16 40 .2 16 42 .2 17 31 .2 17 32 .2 17 33 .2 17 38 .2 17 41 .2 17 42 .2 18 32 .2 18 33 .2 18 34 .2 18 40 .2 19 33 .2 19 35 .2 19 40 .2 20 30 .2 20 32 .2 20 33 .2 20 34 .2 20 37 .2 20 38 .2 20 39 .2 20 40 .2 21 30 .2 21 32 .2 21 36 .2 21 37 .2 21 40 .2 21 41 .2 22 30 .2 22 34 .2 22 35 .2 22 38 .2 22 39 .2 22 42 .2 23 32 .2 23 33 .2 23 36 .2 23 37 .2 23 40 .2 23 42 .2 24 30 .2 24 31 .2 24 34 .2 24 35 .2 24 38 .2 24 40 .2 24 41 .2 24 42 .2 25 32 .2 25 33 .2 25 36 .2 25 38 .2 25 39 .2 25 40 .2 25 41 .2 26 30 .2 26 31 .2 26 34 .2 26 36 .2 26 37 .2 26 38 .2 26 39 .2 26 41 .2 27 32 .2 27 34 .2 27 35 .2 27 36 .2 27 37 .2 27 39 .2 27 41 .2 28 30 .2 28 32 .2 28 33 .2 28 34 .2 28 35 .2 28 37 .2 28 39 .2 29 30 .2 29 31 .2 29 32 .2 29 33 .2 29 35 .2 29 37 .2 29 41 .2 30 32 .2 30 34 .2 30 36 .2 30 38 .2 30 41 .2 30 42 .2 31 32 .2 31 33 .2 31 36 .2 31 38 .2 31 39 .2 31 40 .2 32 33 .2 32 35 .2 32 36 .2 32 38 .2 32 39 .2 32 40 .2 32 42 .2 33 34 .2 33 36 .2 33 38 .2 33 42 .2 34 38 .2 34 39 .2 34 42 .2 35 37 .2 35 39 .2 35 40 .2 35 41 .2 35 42 .2 37 38 .2 37 40 .2 38 39 .2 38 40 .2 38 41 .2 38 42 .2 39 41 0
x T 22 23 24 25 26 27 28 30 36 37 39 40 .2 16 31 .2 16 34 .2 16 36 .2 16 37 .2 16 39 .2 16 41 .2 16 42 .2 17 30 .2 17 34 .2 17 35 .2 17 37 .2 17 38 .2 17 41 .2 18 31 .2 18 32 .2 18 33 .2 18 35 .2 18 36 .2 18 37 .2 18 38 .2 18 40 .2 18 42 .2 19 31 .2 19 33 .2 19 34 .2 19 35 .2 19 37 .2 19 39 .2 19 40 .2 19 42 .2 20 31 .2 20 32 .2 20 33 .2 20 36 .2 21 30 .2 21 31 .2 21 33 .2 21 37 .2 21 38 .2 21 41 .2 21 42 .2 22 31 .2 22 35 .2 22 36 .2 22 39 .2 22 40 .2 23 33 .2 23 34 .2 23 37 .2 23 38 .2 23 41 .2 24 31 .2 24 32 .2 24 35 .2 24 36 .2 24 39 .2 24 41 .2 24 42 .2 25 30 .2 25 33 .2 25 34 .2 25 37 .2 25 39 .2 25 40 .2 25 41 .2 25 42 .2 26 31 .2 26 32 .2 26 35 .2 26 37 .2 26 38 .2 26 39 .2 26 40 .2 26 42 .2 27 30 .2 27 33 .2 27 35 .2 27 36 .2 27 37 .2 27 38 .2 27 40 .2 27 42 .2 28 31 .2 28 33 .2 28 34 .2 28 35 .2 28 36 .2 28 38 .2 28 40 .2 29 31 .2 29 32 .2 29 33 .2 29 34 .2 29 36 .2 29 38 .2 29 42 .2 30 34 .2 30 35 .2 30 36 .2 30 37 .2 30 38 .2 30 39 .2 31 32 .2 31 33 .2 31 37 .2 31 38 .2 31 40 .2 31 41 .2 31 42 .2 32 33 .2 32 34 .2 32 35 .2 32 36 .2 32 39 .2 32 40 .2 32 42 .2 33 35 .2 33 38 .2 33 39 .2 33 41 .2 33 42 .2 34 36 .2 34 39 .2 34 41 .2 34 42 .2 35 36 .2 35 37 .2 35 38 .2 35 42 .2 36 39 .2 36 40 .2 36 41 .2 37 40 .2 37 41 .2 37 42 .2 38 39 .2 38 41 .2 38 42 .2 39 41 .2 39 42 0
x 21 22 23 24 25 26 27 31 33 39 42 .2 16 30 .2 16 33 .2 16 35 .2 16 36 .2 16 37 .2 16 39 .2 16 40 .2 16 41 .2 16 42 .2 17 30 .2 17 32 .2 17 36 .2 17 37 .2 17 39 .2 17 40 .2 17 42 .2 18 31 .2 18 32 .2 18 33 .2 18 38 .2 18 41 .2 18 42 .2 19 32 .2 19 33 .2 19 34 .2 19 40 .2 20 33 .2 20 35 .2 20 40 .2 21 31 .2 21 32 .2 21 34 .2 21 38 .2 21 39 .2 21 42 .2 22 30 .2 22 32 .2 22 36 .2 22 37 .2 22 40 .2 22 41 .2 23 30 .2 23 34 .2 23 35 .2 23 38 .2 23 39 .2 23 42 .2 24 32 .2 24 33 .2 24 36 .2 24 37 .2 24 40 .2 24 42 .2 25 30 .2 25 31 .2 25 34 .2 25 35 .2 25 38 .2 25 40 .2 25 41 .2 25 42 .2 26 32 .2 26 33 .2 26 36 .2 26 38 .2 26 39 .2 26 40 .2 26 41 .2 27 30 .2 27 31 .2 27 34 .2 27 36 .2 27 37 .2 27 38 .2 27 39 .2 27 41 .2 28 32 .2 28 34 .2 28 35 .2 28 36 .2 28 37 .2 28 39 .2 28 41 .2 29 30 .2 29 32 .2 29 33 .2 29 34 .2 29 35 .2 29 37 .2 29 39 .2 30 31 .2 30 33 .2 30 36 .2 30 37 .2 30 38 .2 31 36 .2 31 39 .2 31 41 .2 32 35 .2 32 36 .2 32 37 .2 32 38 .2 32 39 .2 32 40 .2 32 41 .2 32 42 .2 33 35 .2 33 36 .2 33 37 .2 33 39 .2 33 40 .2 33 41 .2 34 38 .2 34 40 .2 34 41 .2 35 36 .2 35 37 .2 35 38 .2 35 39 .2 35 40 .2 35 41 .2 35 42 .2 36 37 .2 36 42 .2 37 39 .2 37 40 .2 37 42 .2 38 39 .2 39 40 .2 39 42 .2 40 41 0
